Version identifier: 12.10.0.0 | 2019-11-26 | 843d4de
CPXPARAM_WorkMem                                 28672
Tried aggregator 2 times.
Aggregator did 50 substitutions.
Reduced MIP has 163 rows, 180 columns, and 726 nonzeros.
Reduced MIP has 180 binaries, 0 generals, 0 SOSs, and 0 indicators.
Presolve time = 0,00 sec. (0,72 ticks)
Found incumbent of value 150,000000 after 0,00 sec. (1,30 ticks)
Probing time = 0,00 sec. (0,32 ticks)
Tried aggregator 1 time.
Detecting symmetries...
MIP Presolve eliminated 39 rows and 0 columns.
MIP Presolve added 78 rows and 0 columns.
Reduced MIP has 202 rows, 180 columns, and 765 nonzeros.
Reduced MIP has 180 binaries, 0 generals, 0 SOSs, and 0 indicators.
Presolve time = 0,00 sec. (0,90 ticks)
Probing time = 0,00 sec. (0,32 ticks)
Clique table members: 526.
MIP emphasis: balance optimality and feasibility.
MIP search method: dynamic search.
Parallel mode: deterministic, using up to 16 threads.
Root relaxation solution time = 0,00 sec. (0,71 ticks)

        Nodes                                         Cuts/
   Node  Left     Objective  IInf  Best Integer    Best Bound    ItCnt     Gap

*     0+    0                          150,0000        0,0000           100,00%
*     0+    0                          109,0000        0,0000           100,00%
      0     0       50,0000   180      109,0000       50,0000       68   54,13%
      0     0       52,3090   180      109,0000       Cuts: 8       92   52,01%
*     0+    0                          107,0000       52,3090            51,11%
      0     0       53,5864   180      107,0000     Cuts: 150      117   49,92%
      0     0       53,9495   180      107,0000      Cuts: 76      137   49,58%
      0     0       54,3406   180      107,0000       Cuts: 5      161   49,21%
      0     0       54,4986   180      107,0000       Cuts: 3      174   49,07%
Detecting symmetries...
      0     0       54,6326   180      107,0000       Cuts: 3      192   48,94%
      0     0       54,7541   180      107,0000   ZeroHalf: 3      203   48,83%
      0     0       54,7922   180      107,0000     Cuts: 137      216   48,79%
      0     0       54,8121   180      107,0000       Cuts: 2      226   48,77%
      0     0       54,8733   180      107,0000       Cuts: 4      243   48,72%
      0     0       54,9709   180      107,0000   ZeroHalf: 3      255   48,63%
      0     0       55,0503   180      107,0000      Cuts: 64      272   48,55%
      0     0       55,0690   180      107,0000       Cuts: 2      278   48,53%
*     0+    0                          105,0000       55,0690            47,55%
Detecting symmetries...
      0     2       55,0690   178      105,0000       67,4475      278   35,76%
Elapsed time = 0,13 sec. (53,40 ticks, tree = 0,02 MB, solutions = 4)

Clique cuts applied:  38
Cover cuts applied:  194
Implied bound cuts applied:  1
Flow cuts applied:  7
Mixed integer rounding cuts applied:  66
Zero-half cuts applied:  10
Lift and project cuts applied:  1
Gomory fractional cuts applied:  12

Root node processing (before b&c):
  Real time             =    0,11 sec. (53,16 ticks)
Parallel b&c, 16 threads:
  Real time             =    0,09 sec. (41,41 ticks)
  Sync time (average)   =    0,05 sec.
  Wait time (average)   =    0,00 sec.
                          ------------
Total (root+branch&cut) =    0,20 sec. (94,56 ticks)
